32
44
47
14
41
37
13
45
24
39
34
11
29
7
17
8
38
46
19
23
43
21
36
28
16
9
20
12
10
22
35
27
40
25
42
18
31
30
26
33
15
5
6
17
42
8
33
25
46
12
39
29
44
21
37
10
48
31
23
35
27
50
14
41
19
36
7
45
32
13
40
24
47
16
38
11
30
43
22
28
9
34
15
18
6
20
5
26
12